25 50
1 2 2
1 6 1
2 3 2
2 7 2
3 4 1
3 8 4
4 5 1
4 9 1
5 10 1
6 7 3
6 11 1
7 8 1
7 12 3
8 9 4
8 13 1
9 10 2
9 14 2
10 15 3
11 12 1
11 16 5
12 13 4
12 17 5
13 14 2
13 18 1
14 15 3
14 19 2
15 20 4
16 17 3
16 21 3
17 18 5
17 22 3
18 19 5
18 23 2
19 20 5
19 24 1
20 25 3
21 22 1
22 23 4
23 24 4
24 25 4
1 21 2
2 22 3
3 23 2
4 24 4
5 25 5
1 5 5
6 10 2
11 15 2
16 20 1
21 25 1
